
Gurobi 10.0.1 (win64) logging started Thu Oct  5 12:32:16 2023

Set parameter LogFile to value "./results//log/BA_12_deadline_heurTrue.log"
Gurobi Optimizer version 10.0.1 build v10.0.1rc0 (win64)

CPU model: AMD Ryzen 7 3700X 8-Core Processor, instruction set [SSE2|AVX|AVX2]
Thread count: 8 physical cores, 16 logical processors, using up to 16 threads

Optimize a model with 507 rows, 331 columns and 1960 nonzeros
Model fingerprint: 0xd53aaa81
Model has 1 quadratic constraint
Variable types: 0 continuous, 331 integer (285 binary)
Coefficient statistics:
  Matrix range     [1e+00, 1e+07]
  QMatrix range    [1e+00, 1e+00]
  QLMatrix range   [1e+00, 1e+01]
  Objective range  [1e+00, 1e+00]
  Bounds range     [1e+00, 1e+00]
  RHS range        [1e+00, 3e+07]

Warning: Completing partial solution with 301 unfixed non-continuous variables out of 331
User MIP start did not produce a new incumbent solution
User MIP start violates constraint initial_start_time_job3_stage0_machine0_constraint by 1.000000000

Presolve removed 83 rows and 120 columns
Presolve time: 0.02s
Presolved: 440 rows, 226 columns, 1923 nonzeros
Variable types: 0 continuous, 226 integer (165 binary)

Root relaxation: objective 0.000000e+00, 46 iterations, 0.00 seconds (0.00 work units)
Another try with MIP start

    Nodes    |    Current Node    |     Objective Bounds      |     Work
 Expl Unexpl |  Obj  Depth IntInf | Incumbent    BestBd   Gap | It/Node Time

     0     0    0.00000    0    1          -    0.00000      -     -    0s
H    0     0                      52.0000000    0.00000   100%     -    0s
     0     0    0.00000    0    3   52.00000    0.00000   100%     -    0s
H    0     0                      51.0000000    0.00000   100%     -    0s
     0     0    0.00000    0    2   51.00000    0.00000   100%     -    0s
     0     0    0.00000    0    9   51.00000    0.00000   100%     -    0s
     0     0    0.00000    0   18   51.00000    0.00000   100%     -    0s
     0     0    0.00000    0    9   51.00000    0.00000   100%     -    0s
H    0     0                      44.0000000    0.00000   100%     -    0s
     0     0    0.00000    0   17   44.00000    0.00000   100%     -    0s
     0     0    0.00000    0    7   44.00000    0.00000   100%     -    0s
     0     0    0.00000    0    7   44.00000    0.00000   100%     -    0s
H    0     0                      42.0000000    0.00000   100%     -    0s
     0     2    0.00000    0    7   42.00000    0.00000   100%     -    0s
H   29    24                      41.0000000    0.00000   100%  18.1    0s
H   84    41                      37.0000000    0.00000   100%  17.9    0s
H  116    67                      35.0000000    0.00000   100%  15.7    0s
H 8839   123                      34.0000000    0.00000   100%   0.3    0s
H 9288   123                      33.0000000    0.00000   100%   0.3    0s
H 9358   130                      30.0000000    0.00000   100%   0.3    0s
H14860   139                      29.0000000    4.81724  83.4%   0.2    0s
H14861   133                      27.0000000    5.00000  81.5%   0.2    0s
H14865   128                      26.0000000    5.00000  80.8%   0.2    1s
H14865   122                      25.0000000    5.00000  80.0%   0.2    1s
H14866   115                      23.0000000    5.00000  78.3%   0.2    1s
H14869   111                      22.0000000    5.00000  77.3%   0.2    1s
H15064   224                      20.0000000    5.00000  75.0%   1.5    2s

Cutting planes:
  Cover: 2
  Implied bound: 5
  StrongCG: 1
  Flow cover: 8

Explored 70793 nodes (614917 simplex iterations) in 4.98 seconds (3.08 work units)
Thread count was 16 (of 16 available processors)

Solution count 10: 20 22 23 ... 34

Optimal solution found (tolerance 1.00e-04)
Best objective 2.000000000000e+01, best bound 2.000000000000e+01, gap 0.0000%
Warning: constraint name "precedence between 0,0 to 0,2 if x_[0,0,0,2,3]=0, i.e. 0,2 before 0,0" has a space
Warning: constraint name "precedence between 0,0 to 0,2 if x_[0,0,0,2,3]=0, i.e. 0,2 before 0,0" has a space
Warning: default constraint names used to write mps file
